objective value:                                    0
lambda[0,19]*                        6.00000000000001 	(obj:0)
lambda[1,20]*                                       2 	(obj:0)
lambda[1,23]*                                       4 	(obj:0)
lambda[1,24]*                                       1 	(obj:0)
lambda[0,25]*                        3.99999999999999 	(obj:0)
lambda[1,26]*                                       3 	(obj:0)
